language ESSENCE' 1.0
$ loaded file: carseqdata/csplib-instance-53
letting numcars=200
letting numclasses=24
letting numoptions=5
letting optMax=[1, 2, 1, 2, 1]
letting windowSize=[2, 3, 3, 5, 5]
letting numberPerClass=[12, 2, 22, 10, 1, 5, 5, 4, 2, 14, 5, 10, 4, 30, 1, 2, 6, 6, 25, 19, 1, 10, 2, 2]
letting optionsRequired=[[0, 0, 0, 0, 1], [0, 1, 1, 0, 1], [0, 1, 0, 1, 0], [1, 0, 1, 0, 0], [0, 0, 0, 1, 1], [0, 1, 1, 0, 0], [0, 0, 1, 0, 1], [1, 1, 1, 0, 0], [1, 0, 1, 0, 1], [1, 1, 0, 0, 0], [0, 1, 1, 1, 0], [0, 0, 1, 1, 0], [1, 1, 0, 0, 1], [0, 1, 0, 0, 0], [1, 0, 0, 1, 1], [1, 0, 0, 0, 1], [1, 0, 0, 1, 0], [0, 1, 0, 0, 1], [1, 0, 0, 0, 0], [0, 0, 0, 1, 0], [1, 0, 1, 1, 0], [0, 0, 1, 0, 0], [1, 1, 1, 0, 1], [1, 1, 0, 1, 0]]
